
Gurobi 6.5.2 (linux64) logging started Tue Sep  6 10:06:17 2016

Optimize a model with 21 rows, 41 columns and 85 nonzeros
Coefficient statistics:
  Matrix range    [1e+00, 2e+00]
  Objective range [1e+00, 7e+01]
  Bounds range    [1e+00, 1e+00]
  RHS range       [1e+00, 1e+00]
Found heuristic solution: objective 486
Presolve removed 10 rows and 8 columns
Presolve time: 0.00s
Presolved: 11 rows, 33 columns, 67 nonzeros
Variable types: 0 continuous, 33 integer (33 binary)

Root relaxation: objective 2.660000e+02, 15 iterations, 0.00 seconds

    Nodes    |    Current Node    |     Objective Bounds      |     Work
 Expl Unexpl |  Obj  Depth IntInf | Incumbent    BestBd   Gap | It/Node Time

     0     0  266.00000    0   10  486.00000  266.00000  45.3%     -    0s
H    0     0                     436.0000000  266.00000  39.0%     -    0s
H    0     0                     427.0000000  266.00000  37.7%     -    0s
H    0     0                     293.0000000  266.00000  9.22%     -    0s
     0     0  273.33333    0    9  293.00000  273.33333  6.71%     -    0s
     0     0  278.33333    0   12  293.00000  278.33333  5.01%     -    0s
     0     0  279.50000    0   12  293.00000  279.50000  4.61%     -    0s
H    0     0                     285.0000000  279.50000  1.93%     -    0s
H    0     0                     280.0000000  279.50000  0.18%     -    0s

Cutting planes:
  Gomory: 3
  Cover: 3
  MIR: 1
  Zero half: 1
  Lazy constraints: 3

Explored 0 nodes (25 simplex iterations) in 0.00 seconds
Thread count was 8 (of 8 available processors)

Optimal solution found (tolerance 1.00e-04)
Best objective 2.800000000000e+02, best bound 2.800000000000e+02, gap 0.0%
